data/processed_heuristic-threshold/instances/1/8/ds_630_courier_487/pairwise.tsp
NAME: ds_630_courier_487
TYPE: TSP
COMMENT: nil
DIMENSION: 9
EDGE_WEIGHT_TYPE: EXPLICIT
EDGE_WEIGHT_FORMAT: FULL_MATRIX
EDGE_WEIGHT_SECTION
9999 3753 4435 2669 2588 3223 3799 2453 3486 
3753 9999 5104 3580 1166 531 324 1301 366 
4435 5104 9999 1893 4551 4817 4852 4596 4754 
2669 3580 1893 9999 2800 3189 3395 2815 3214 
2588 1166 4551 2800 9999 635 1230 164 913 
3223 531 4817 3189 635 9999 635 774 333 
3799 324 4852 3395 1230 635 9999 1384 318 
2453 1301 4596 2815 164 774 1384 9999 1067 
3486 366 4754 3214 913 333 318 1067 9999 
