data/processed_heuristic-threshold/instances/1/8/ds_630_courier_487/pairwise.sol
9
0 7 4 5 8 1 6 2 3 
